sat
(model
  (define-fun |sum$unknown:2|
    ( (v_0 Int) (v_1 Int) ) Bool
    (and (>= (+ v_0 (* (- 3) v_1)) (- 3)) (or (and (>= (+ v_0 (* (- 3) v_1)) (- 3)) (>= v_0 0) (= (+ (* (- 1) v_1) v_0) 0)) (and (>= (* (- 1) v_1) 0) (>= (+ v_0 (* (- 3) v_1)) (- 3)) (>= v_0 0) (not (= (+ (* (- 1) v_1) v_0) 0))) (and (>= (+ v_0 (* (- 3) v_1)) (- 3)) (>= v_0 0) (not (= (+ (* (- 1) v_1) v_0) 0)) (>= v_1 1) (not (= v_0 0)))))
  )
)
